NAME : custom
COMMENT : Custom points
TYPE : TSP
DIMENSION : 48
EDGE_WEIGHT_TYPE : EUC_2D
NODE_COORD_SECTION
1 34 11
2 24 25
3 36 31
4 26 42
5 19 46
6 29 68
7 38 55
8 35 46
9 19 67
10 11 67
11 10 48
12 23 93
13 44 72
14 53 54
15 53 35
16 62 23
17 56 13
18 52 23
19 45 21
20 48 49
21 67 43
22 73 54
23 77 30
24 73 22
25 79 14
26 84 18
27 83 22
28 84 24
29 83 26
30 83 30
31 81 33
32 84 40
33 91 63
34 87 44
35 90 34
36 78 63
37 72 71
38 55 72
39 62 59
40 60 59
41 62 54
42 62 54
43 64 57
44 65 62
45 62 63
46 61 66
47 63 88
48 51 92
EOF
